p wcnf 175 88 89 
1 102 -106 0 
1 -126 -72 0 
1 -20 163 0 
1 115 -43 0 
1 -3 151 0 
1 14 39 0 
1 -129 53 0 
1 -169 -168 0 
1 101 172 0 
1 -17 22 0 
1 -109 140 0 
1 -168 112 0 
1 -143 -57 0 
1 -62 140 0 
1 44 128 0 
1 -107 2 0 
1 -63 44 0 
1 -88 142 0 
1 153 -150 0 
1 132 4 0 
1 161 -89 0 
1 13 31 0 
1 148 124 0 
1 45 -32 0 
1 -56 -141 0 
1 -162 -96 0 
1 -66 -140 0 
1 52 -12 0 
1 -147 -140 0 
1 15 -60 0 
1 -29 67 0 
1 -17 9 0 
1 -59 101 0 
1 -15 -107 0 
1 40 -95 0 
1 -148 -89 0 
1 94 127 0 
1 89 -145 0 
1 -149 -60 0 
1 -141 175 0 
1 57 46 0 
1 -89 55 0 
1 -86 33 0 
1 -48 121 0 
1 137 68 0 
1 72 -51 0 
1 25 24 0 
1 -79 36 0 
1 -49 173 0 
1 -168 -171 0 
1 39 -136 0 
1 -48 3 0 
1 18 126 0 
1 -142 -110 0 
1 -11 73 0 
1 96 -36 0 
1 -74 -36 0 
1 93 119 0 
1 39 38 0 
1 -46 98 0 
1 -46 -167 0 
1 -159 127 0 
1 -129 -51 0 
1 82 -161 0 
1 -126 -132 0 
1 -163 38 0 
1 -164 -153 0 
1 164 157 0 
1 47 -20 0 
1 98 71 0 
1 84 -144 0 
1 -6 26 0 
1 5 12 0 
1 -121 -140 0 
1 24 125 0 
1 134 -173 0 
1 -87 -48 0 
1 -38 132 0 
1 46 -153 0 
1 121 144 0 
1 -86 -58 0 
1 18 -153 0 
1 147 -106 0 
1 113 100 0 
1 23 -66 0 
1 15 169 0 
1 -21 63 0 
1 48 99 0 
